c width = 2, time = 0.000033
s td 16 3 17
b 1 11 13
b 2 13 11 12
b 3 13 11 10
b 4 13 10 8
b 5 13 8 7
b 6 13 7 6
b 7 13 6 5
b 8 13 5 4
b 9 13 4 3
b 10 13 3 17
b 11 13 17 16
b 12 13 16 15
b 13 13 15 14
b 14 10 2
b 15 2 1
b 16 8 9
1 2
1 3
3 4
4 5
5 6
6 7
7 8
8 9
9 10
10 11
11 12
12 13
3 14
14 15
4 16
